nNurses = 139;
nHours = 34;
minHours = 7;
maxHours = 20;
maxConsec = 16;
maxPresence = 27;
demand = [35, 35, 36, 36, 31, 30, 27, 25, 23, 18, 16, 12, 17, 13, 14, 19, 24, 26, 29, 29, 29, 28, 24, 26, 21, 23, 28, 29, 25, 20, 21, 22, 24, 23];
